
  32    4
  10   10   10   10

   0   0   0   0   0   7 2 3 4 6 8 9 14 
   3   1   0   1   1   4 15 11 7 5 
   9   1   1   0   3   6 19 17 15 13 12 11 
   1   4   3   0   6   5 16 15 13 12 10 
   5   5   4   0   3   5 31 19 17 16 13 
  10   4   3   5   0   2 16 7 
   9   4   0   3   2   5 31 22 19 18 12 
   5   4   5   2   0   6 31 25 21 20 18 16 
   1   0   4   6   4   6 31 26 21 20 19 18 
   7   4   5   0   5   6 31 30 24 22 20 19 
   4   0   4   2   3   3 31 20 16 
   8   3   0   3   4   6 30 26 25 24 21 20 
   8   5   0   3   5   5 25 22 21 20 18 
   1   0   3   7   4   5 31 30 26 21 18 
   6   3   2   4   0   5 31 26 25 22 20 
   4   4   0   3   6   5 30 26 24 23 22 
   5   2   4   0   8   4 30 25 22 20 
  10   6   4   0   6   2 24 23 
   7   4   0   4   1   3 29 28 25 
   2   6   5   6   0   2 27 23 
   1   4   3   7   0   2 27 23 
   8   3   4   0   3   3 29 28 27 
   6   5   3   5   0   2 29 28 
   8   0   3   2   4   1 27 
   8   6   5   0   2   1 27 
   4   4   4   5   0   1 28 
   7   0   4   8   3   1 32
   6   0   6   1   3   1 32
   1   4   0   4   6   1 32
   2   0   6   3   3   1 32
   4   6   7   0   7   1 32
   0   0   0   0   0   0 
